c Random 8-CNF over 30 variables and 240 clauses
c Generated with `cnfgen`
c (C) 2012-2016 Massimo Lauria <lauria.massimo@gmail.com>
c https://massimolauria.github.io/cnfgen
c
c COMMAND LINE: cnfgen --output tmp-8-30-240.dimacs --output-format dimacs randkcnf 8 30 240
c
c sdimacs generated by gen-sdimacs
c
p cnf 30 240
e 16 17 18 19 20 21 22 23 24 25 26 27 28 29 30 0
r 0.37 1 2 3 4 5 6 7 8 9 10 11 12 13 14 15 0
3 -5 9 -12 -15 -20 21 25 0
-6 9 -13 14 16 -24 -28 -30 0
5 10 -14 16 -19 -25 27 -29 0
-1 -3 -4 -8 -11 -14 21 -24 0
-2 -5 -15 -21 -22 27 -29 30 0
2 -4 6 7 -15 -24 -27 -30 0
-1 4 11 -12 -14 -17 21 -27 0
3 9 10 11 12 14 -20 26 0
-6 13 19 20 -21 23 -26 29 0
2 -3 6 8 11 -13 16 -29 0
-4 -16 -17 -19 -22 -23 -27 29 0
-1 -6 -7 10 15 22 -23 29 0
-4 6 7 -11 15 21 26 29 0
5 7 8 -13 16 17 -20 21 0
-3 10 -12 -25 26 -27 -29 -30 0
2 -3 -4 9 10 18 21 -26 0
3 -4 -5 11 15 -22 -25 -30 0
-4 -7 -8 -9 13 16 -21 -24 0
6 8 -17 -18 -21 -23 24 -26 0
-2 4 7 8 -15 -18 -20 -27 0
5 14 -19 21 -23 25 -27 -28 0
1 6 -11 -18 -23 -24 25 -27 0
5 -10 -11 -13 -16 17 -22 23 0
-2 4 11 17 23 -26 27 30 0
-3 -6 12 13 -21 27 28 29 0
7 -8 12 16 -19 -20 -22 -26 0
1 8 10 -14 -23 -26 -27 30 0
3 5 -8 -12 -17 -18 -19 26 0
3 -11 13 -17 19 -23 25 26 0
-1 -7 8 9 -14 -17 18 30 0
-3 -5 6 -7 -8 17 18 23 0
3 4 8 14 -15 -17 23 26 0
5 6 -10 11 -21 -26 -29 -30 0
-3 -18 -19 -20 -22 27 -28 29 0
5 -7 -8 9 12 -14 -16 -24 0
7 -13 -17 -22 23 26 -28 -29 0
3 5 -6 -15 -16 19 -22 -23 0
-2 -10 11 12 16 20 -27 29 0
-1 7 10 -11 12 19 21 -25 0
-1 -2 5 20 21 -24 25 26 0
-3 -6 -7 -12 21 26 -29 30 0
-2 8 -10 -17 19 22 23 25 0
-1 2 -14 17 -21 -25 26 27 0
4 8 10 -15 -17 20 23 28 0
-7 -9 11 15 17 -19 -26 30 0
1 -7 17 19 -21 24 29 30 0
-5 -10 16 -18 19 -23 -25 28 0
-3 -6 10 11 13 17 -19 23 0
1 -3 9 14 -16 21 -22 -26 0
4 -6 11 13 -17 -18 -21 23 0
5 8 12 -13 15 17 20 -24 0
-2 7 17 -19 22 23 -27 29 0
-4 -6 8 -19 22 -23 25 29 0
-2 8 11 -12 -15 -17 -20 29 0
1 -2 4 12 -15 18 -19 27 0
8 -11 -18 -19 20 -21 -28 -30 0
1 -4 6 20 23 24 25 -27 0
2 5 -12 -13 17 -21 22 24 0
-1 5 -7 -12 -15 -21 25 29 0
9 10 15 16 20 26 -27 -28 0
6 8 -11 17 -20 24 -27 -28 0
1 -3 5 -11 -16 24 25 26 0
1 -7 -8 10 11 -14 27 30 0
-1 -4 -9 -12 -21 -23 28 -29 0
-1 -9 -13 16 20 -21 28 29 0
2 -10 12 -13 18 19 22 27 0
-7 8 12 -13 -21 -24 -28 29 0
10 -14 16 22 -24 -25 -28 -29 0
-1 9 -11 17 18 -20 24 -26 0
1 3 -5 7 9 -14 -24 -26 0
3 -10 -16 21 -22 24 -27 28 0
-7 8 11 -13 14 -15 -18 24 0
4 7 8 -10 16 -17 24 -29 0
-1 4 5 -19 -23 -24 27 -30 0
1 -7 -8 17 18 19 20 -21 0
1 3 -6 7 -13 -17 19 22 0
-1 -3 8 -10 -19 -24 -26 -30 0
-9 -10 -12 17 -18 -19 25 -26 0
2 -3 7 10 -17 21 22 24 0
2 -4 -12 14 -15 -17 18 20 0
-2 -6 -16 -17 -21 -25 -26 -30 0
-7 9 13 -14 18 -21 -25 26 0
3 10 -11 12 20 22 27 29 0
3 -5 7 -15 17 22 -23 -24 0
-5 -6 -13 -14 15 -19 20 30 0
9 -10 12 15 -18 -20 23 -25 0
1 2 7 15 -16 -17 20 26 0
-6 7 9 10 19 -23 24 -30 0
3 -4 11 -12 18 19 20 -28 0
-2 6 11 -12 -13 19 -24 -28 0
1 -4 8 -12 20 -25 26 28 0
-7 -9 -10 11 13 -19 20 -21 0
-3 6 -11 -13 -15 20 24 28 0
1 6 -7 -15 -22 -28 -29 30 0
-1 6 -9 -15 -22 -24 -25 -26 0
-2 -7 -9 -11 15 22 -25 30 0
4 -8 -9 -10 -13 -22 -25 27 0
-5 6 -8 10 12 -16 23 26 0
-2 -5 6 -11 17 -19 20 28 0
6 7 14 15 -17 18 -19 -27 0
-1 -2 -5 6 13 18 -23 -27 0
1 -2 -5 10 11 19 -20 26 0
-2 3 -9 -10 21 -24 27 30 0
5 13 16 17 18 19 23 -28 0
2 -4 5 -6 7 15 21 22 0
-1 -2 -8 11 17 19 27 30 0
-2 -3 -5 10 -14 -24 -27 28 0
-3 -5 -11 17 22 24 -25 27 0
-1 -2 3 5 -8 10 -17 -25 0
-2 6 -7 -10 13 18 25 27 0
4 6 8 9 -12 -19 20 26 0
1 -4 6 8 -11 23 -24 25 0
-5 -7 -9 -10 15 -16 17 21 0
6 8 -9 12 14 19 22 -29 0
3 7 11 -12 -13 -14 -28 -29 0
1 -5 -6 -10 -15 -18 -21 29 0
-2 -14 -15 18 19 -25 27 -28 0
2 -4 -7 10 21 25 -26 -28 0
-6 -8 12 -13 -15 17 -18 -23 0
2 5 7 -9 -11 18 -21 28 0
-2 3 -5 -7 -8 17 -27 29 0
2 -5 6 -9 -21 -23 27 30 0
2 -12 -13 -14 16 -21 -23 26 0
-4 9 13 -14 -15 17 24 27 0
4 6 13 -14 -15 20 -22 -28 0
-5 12 -13 18 20 -24 -25 -26 0
5 10 11 13 -22 -24 -25 -29 0
-1 4 -6 7 -12 13 23 24 0
3 -10 11 -13 16 -21 -22 -27 0
8 -18 -19 21 23 -25 27 -28 0
1 7 -10 -12 -14 19 -26 27 0
-5 -6 -8 10 14 -15 -16 -22 0
-7 10 15 -17 -22 26 -29 -30 0
-4 -7 -8 11 16 -18 19 22 0
3 4 5 -12 -14 -18 -22 30 0
1 3 -4 8 -13 -17 23 29 0
2 4 6 17 -22 25 -28 30 0
-3 -6 7 10 -15 17 -19 29 0
1 -5 10 -12 -17 -18 -27 -28 0
1 -2 4 9 -11 -24 27 29 0
-3 13 17 -22 -25 -28 -29 -30 0
-5 6 -8 -12 17 -20 23 -28 0
-3 9 14 -15 22 23 28 29 0
-1 -8 9 -15 -21 26 28 30 0
-3 -6 -12 -16 17 18 -21 29 0
-1 -3 -5 -8 14 18 26 29 0
-6 10 -15 16 -19 -22 -26 30 0
-1 -3 7 8 -10 -15 17 -26 0
2 -3 -12 16 -17 20 24 27 0
-3 4 7 -11 13 -25 26 28 0
5 -8 9 -13 15 17 -23 -29 0
-1 -6 14 -15 -19 21 22 26 0
-5 8 -12 15 18 21 23 28 0
-2 -6 -9 -10 -13 -18 24 27 0
1 -11 -12 19 20 -21 25 -27 0
-4 9 12 13 16 -18 -21 -22 0
-4 -5 -6 -9 -13 -21 25 26 0
1 -5 7 11 14 -24 28 29 0
3 6 7 -8 -9 -17 18 29 0
6 11 -12 -17 18 25 -28 30 0
-1 4 -12 -14 17 -19 -23 25 0
3 -5 7 -9 15 20 21 -27 0
-5 -6 -8 15 16 20 26 -29 0
3 -8 -13 -15 24 -28 29 30 0
1 -6 14 16 22 24 25 -26 0
-1 3 6 7 -17 -21 -24 -26 0
5 -8 11 12 -16 17 18 -26 0
6 -7 -8 10 -23 -24 25 27 0
-2 -7 -13 14 -16 17 18 30 0
3 -5 8 13 -19 22 23 30 0
1 8 11 -14 16 -17 18 19 0
-1 3 -4 -9 -22 24 -27 30 0
-6 -8 -9 -14 -15 -17 18 30 0
-4 6 9 -14 -17 -19 26 29 0
2 3 4 5 6 -13 -24 -25 0
2 5 11 -12 22 -23 -26 27 0
6 -9 -11 -17 -18 -23 28 30 0
8 10 -11 14 15 19 -22 -29 0
-1 -2 -3 -8 19 20 27 30 0
-4 -5 -9 -11 -14 22 -24 30 0
6 7 -13 -14 15 -19 -21 25 0
-5 6 -8 -9 12 -16 22 26 0
-1 -2 11 15 -16 -20 -22 -25 0
6 -9 10 11 -15 -18 21 23 0
-1 -5 11 -19 -22 24 25 -30 0
-13 18 21 22 -23 -24 -25 30 0
-9 -12 17 -21 22 23 -25 -30 0
2 6 8 -10 -14 21 25 30 0
5 -12 -14 -17 18 -22 -26 -29 0
12 14 -16 -18 -21 -25 -26 -28 0
-9 11 13 -22 -23 -25 26 28 0
3 -8 13 -14 -18 20 -21 25 0
-1 2 -3 17 25 -28 29 -30 0
1 -2 -6 -7 14 18 25 29 0
-5 7 -8 12 -16 23 24 25 0
3 -5 6 7 -16 21 -22 28 0
1 8 -10 15 -17 21 -23 30 0
7 -16 21 -22 -25 27 28 -29 0
5 -10 -17 -19 -21 23 -25 27 0
2 5 9 17 20 25 -27 28 0
-1 -2 11 -17 18 19 21 28 0
2 7 -12 -13 -18 20 -28 29 0
1 -8 10 -12 -19 20 21 28 0
-3 6 8 -11 14 -20 24 29 0
-5 7 8 12 14 19 25 27 0
1 -8 9 -24 25 -26 -28 30 0
1 3 5 8 9 -13 -16 -23 0
2 -4 -10 -13 14 -15 27 28 0
1 8 -10 13 16 -18 26 27 0
-2 3 -8 -12 16 -21 -29 30 0
2 4 5 11 -17 18 -21 -22 0
-1 -2 4 8 -9 10 -16 -20 0
2 -4 -5 7 -10 -22 -25 30 0
-1 -2 3 -6 14 21 -25 -29 0
9 -11 -13 16 18 -20 24 25 0
-2 -4 10 13 -16 -19 -22 -24 0
-4 -7 -11 14 -15 16 -25 -27 0
-5 -11 15 -16 18 23 -25 -29 0
4 -8 -11 -14 -20 21 -23 -25 0
-2 7 8 -15 16 -18 -28 -29 0
3 5 6 8 9 21 -25 -27 0
1 -3 15 -17 21 -23 -26 -30 0
-3 -4 9 -10 -11 -21 27 -29 0
-2 -3 4 9 12 15 -21 -22 0
-4 9 -10 -13 14 16 18 25 0
1 -5 -10 -11 15 -25 -28 30 0
-6 -7 9 -10 17 19 -20 -23 0
1 2 9 -13 19 -20 23 30 0
4 -8 -11 -15 -19 23 25 30 0
5 9 -11 16 -19 21 24 30 0
-3 7 11 -12 -16 19 21 -24 0
-2 7 -10 17 20 -23 -25 29 0
1 5 -6 -8 11 -18 20 24 0
-2 3 -7 13 23 24 -26 -30 0
5 -8 -11 -15 -19 -24 -29 -30 0
-2 -6 -7 -11 17 21 23 -28 0
-1 -8 9 10 11 -15 23 28 0
-3 -7 -9 -15 -18 -23 25 26 0
-5 -8 12 -16 19 -21 28 29 0
3 -9 10 -16 -18 19 -26 27 0
